Route #1: 0 67 65 63 62 74 72 61 64 68 66 69 0
Route #2: 0 49 47 43 42 41 40 44 45 46 48 51 50 52 29 30 22 0
Route #3: 0 20 21 24 25 27 28 26 23 8 6 4 3 5 0
Route #4: 0 7 75 1 2 100 92 94 95 96 98 0
Route #5: 0 99 97 93 88 85 82 86 89 91 90 0
Route #6: 0 87 84 83 81 78 76 71 70 73 77 79 80 0
Route #7: 0 59 60 58 56 53 54 55 57 0
Route #8: 0 34 36 39 38 37 35 31 33 32 0
Route #9: 0 13 17 18 19 15 16 14 12 11 0
Route #10: 0 10 9 0
Cost 920:
